NAME : OMNETRUN
COMMENT : 524.61
TYPE : CVRP
DIMENSION : 21
EDGE_WEIGHT_TYPE : EUC_2D
CAPACITY : 21
NODE_COORD_SECTION
1 0.107093 -0.77924
2 69.4112 -862.09
3 75.2413 -1313.13
4 61.3278 -2834.8
5 121.072 -3753.86
6 10.8635 -4809.53
7 110.606 -5593.23
8 307.965 -76.1596
9 443.312 -559.255
10 406.998 -1446.96
11 333.785 -2174.82
12 283.559 -3361.47
13 371.486 -4016.73
14 549.14 -893.921
15 710.903 -1232.11
16 625.265 -2683.59
17 620.296 -3100.25
18 663.631 -3767.13
19 527.878 -4442.51
20 507.498 -5075.75
21 678.759 -5684.31
DEMAND_SECTION
1 0
2 1
3 1
4 1
5 1
6 1
7 1
8 1
9 1
10 1
11 1
12 1
13 1
14 1
15 1
16 1
17 1
18 1
19 1
20 1
21 1
DEPOT_SECTION
1
-1
EOF
